data;


param d:= 100;
param r:=5;
param p:=0.780000;
param M:=1000;
param U:=
         1         1        4.390946e-01
         2         1        1.579572e-02
         3         1        5.985503e-01
         4         1        1.711206e+00
         5         1       -7.984231e-01
         6         1        2.071902e-01
         7         1        2.294933e+00
         8         1        7.905636e-01
         9         1        1.192360e+00
        10         1       -9.499096e-02
        11         1        1.658891e+00
        12         1       -4.727717e-01
        13         1        2.932934e-01
        14         1       -1.868198e+00
        15         1        3.600225e-02
        16         1       -1.092940e+00
        17         1        3.050360e-02
        18         1        1.144982e+00
        19         1       -6.453062e-01
        20         1        1.077812e+00
        21         1       -3.667199e-01
        22         1        1.629898e+00
        23         1        8.229206e-01
        24         1        9.188700e-01
        25         1       -2.546092e+00
        26         1        3.955870e-01
        27         1        9.721837e-01
        28         1       -8.111282e-01
        29         1       -1.548294e+00
        30         1       -4.183207e-01
        31         1       -3.545311e-01
        32         1        2.536490e-01
        33         1        4.632537e-01
        34         1        1.501694e+00
        35         1       -8.119259e-01
        36         1        1.028697e-01
        37         1        1.472535e+00
        38         1        9.680701e-01
        39         1        4.496689e-01
        40         1        1.601776e-01
        41         1        4.214619e-01
        42         1       -5.107663e-01
        43         1        4.935679e-01
        44         1        1.760180e+00
        45         1        6.354501e-01
        46         1       -1.627003e+00
        47         1        1.282715e+00
        48         1        4.235205e-01
        49         1       -5.593317e-01
        50         1       -3.439283e-01
        51         1        1.589229e+00
        52         1       -7.620530e-01
        53         1       -8.228007e-02
        54         1        4.730967e-01
        55         1        8.173313e-01
        56         1       -1.509625e+00
        57         1        2.150910e-03
        58         1        5.631308e-02
        59         1        2.389642e+00
        60         1       -1.250820e+00
        61         1        7.237645e-01
        62         1        7.047121e-01
        63         1       -2.195914e-01
        64         1       -1.341870e+00
        65         1       -5.344001e-01
        66         1        1.643834e-01
        67         1       -5.705451e-01
        68         1       -3.041290e-01
        69         1        9.989079e-01
        70         1       -1.712811e+00
        71         1        1.029172e+00
        72         1       -3.200640e-01
        73         1        8.281040e-01
        74         1       -1.337721e-01
        75         1       -2.092806e-01
        76         1       -1.201316e+00
        77         1       -1.126320e+00
        78         1       -5.690930e-01
        79         1        7.897688e-01
        80         1       -1.758758e-01
        81         1       -6.234317e-01
        82         1       -2.628307e+00
        83         1       -6.419699e-01
        84         1       -1.053340e+00
        85         1        5.552270e-01
        86         1        1.647818e-01
        87         1       -1.197726e+00
        88         1       -1.791724e-01
        89         1        2.124234e+00
        90         1        2.732403e-01
        91         1       -1.728656e+00
        92         1        1.162597e+00
        93         1        7.732936e-01
        94         1       -1.407966e+00
        95         1       -7.328895e-01
        96         1        3.833928e-01
        97         1       -4.707958e-01
        98         1       -1.373771e+00
        99         1        1.738400e+00
       100         1       -5.747674e-01
         1         2        1.917947e-02
         2         2        5.414683e-01
         3         2        2.304754e-01
         4         2        9.095950e-01
         5         2        9.112813e-01
         6         2        4.236917e-01
         7         2       -2.931538e-01
         8         2        2.559342e+00
         9         2       -6.790460e-01
        10         2        1.968908e-01
        11         2        8.814691e-01
        12         2       -2.993437e-01
        13         2        1.627812e+00
        14         2       -2.102376e+00
        15         2       -1.712298e+00
        16         2        2.806713e+00
        17         2       -5.987594e-01
        18         2       -2.702760e-01
        19         2        1.374031e+00
        20         2        4.009834e-01
        21         2       -2.410092e-01
        22         2       -1.588245e+00
        23         2        1.812387e+00
        24         2        1.087372e+00
        25         2       -4.631606e-01
        26         2        7.045918e-02
        27         2        1.063312e-01
        28         2        1.655925e-01
        29         2        8.367494e-01
        30         2       -7.278770e-01
        31         2        6.226275e-01
        32         2        8.880911e-01
        33         2        1.142587e+00
        34         2        6.800163e-01
        35         2        4.073271e-01
        36         2        3.379233e-02
        37         2        9.889686e-01
        38         2        1.081964e+00
        39         2        3.774592e-01
        40         2       -1.719997e+00
        41         2       -6.984685e-01
        42         2        3.925883e-02
        43         2       -1.016408e+00
        44         2       -1.696981e+00
        45         2        4.869432e-01
        46         2       -4.939115e-01
        47         2        1.711846e-02
        48         2       -1.367663e+00
        49         2       -2.463459e-01
        50         2       -1.192818e+00
        51         2        1.657619e+00
        52         2        8.726401e-02
        53         2       -1.335670e+00
        54         2       -2.121726e+00
        55         2        1.122255e+00
        56         2        1.541033e+00
        57         2        3.327905e-01
        58         2        4.658095e-02
        59         2        1.215060e+00
        60         2       -8.560922e-01
        61         2        2.257457e-01
        62         2       -1.643961e+00
        63         2        1.455100e-01
        64         2       -1.360646e+00
        65         2        3.329898e-01
        66         2        6.407810e-01
        67         2       -7.687428e-01
        68         2       -1.819217e+00
        69         2       -1.264782e-02
        70         2       -2.311582e-01
        71         2       -1.102963e-01
        72         2       -5.873018e-01
        73         2        1.629710e-01
        74         2       -8.766876e-01
        75         2       -1.731720e-02
        76         2        1.349310e+00
        77         2       -1.196642e+00
        78         2       -5.658680e-01
        79         2        6.025773e-01
        80         2       -2.454646e-01
        81         2       -2.838459e-01
        82         2       -1.474711e+00
        83         2        3.474296e-01
        84         2       -8.252653e-01
        85         2        6.101724e-01
        86         2        2.047972e-01
        87         2       -9.669982e-01
        88         2        9.088667e-01
        89         2        1.975025e+00
        90         2       -6.784750e-01
        91         2        1.067594e+00
        92         2        4.204778e-01
        93         2       -4.167018e-01
        94         2        9.451545e-02
        95         2       -7.819902e-01
        96         2        9.295063e-01
        97         2        1.361741e+00
        98         2       -4.501364e-01
        99         2        1.146077e+00
       100         2        2.101506e+00
         1         3       -3.640281e-01
         2         3        1.885461e+00
         3         3        3.672823e-01
         4         3       -2.350750e-01
         5         3       -1.895683e+00
         6         3        8.017364e-01
         7         3        1.134588e-01
         8         3       -2.948041e-01
         9         3       -1.316096e+00
        10         3       -3.624287e-01
        11         3       -6.212735e-01
        12         3       -1.039287e+00
        13         3        1.852451e+00
        14         3       -3.146022e-01
        15         3       -1.885594e+00
        16         3        7.836080e-01
        17         3       -2.292305e-01
        18         3       -7.705678e-01
        19         3        4.264907e-01
        20         3        1.067223e+00
        21         3        2.441439e+00
        22         3        9.228032e-01
        23         3        6.524982e-01
        24         3       -1.853878e-02
        25         3       -1.912966e+00
        26         3        1.002474e+00
        27         3        6.054706e-01
        28         3        3.384217e-03
        29         3        1.178265e-01
        30         3       -4.375823e-01
        31         3       -7.250746e-01
        32         3        3.228370e-02
        33         3        1.153159e+00
        34         3       -6.000990e-01
        35         3       -4.045515e-01
        36         3       -1.507585e-01
        37         3       -8.693138e-01
        38         3       -1.250744e+00
        39         3       -1.687455e-01
        40         3       -4.331173e-01
        41         3       -9.511318e-01
        42         3        2.434772e-01
        43         3       -1.069091e+00
        44         3       -6.722374e-01
        45         3       -2.894814e-01
        46         3       -1.273102e+00
        47         3        3.602874e-01
        48         3        1.052518e-01
        49         3       -2.188930e+00
        50         3       -1.897113e-02
        51         3       -7.693899e-01
        52         3        1.012770e+00
        53         3       -1.201917e+00
        54         3       -2.933503e-01
        55         3        1.897068e-01
        56         3        8.241673e-01
        57         3       -1.409519e+00
        58         3       -8.005194e-02
        59         3        1.084924e+00
        60         3        5.524183e-02
        61         3        1.666415e-01
        62         3        4.795882e-01
        63         3       -3.675655e-01
        64         3        8.465097e-01
        65         3       -1.858847e+00
        66         3       -3.418867e-01
        67         3        1.849827e-01
        68         3        5.843819e-01
        69         3        4.949328e-02
        70         3        8.091992e-01
        71         3       -6.440821e-02
        72         3        5.709437e-01
        73         3        4.217727e-01
        74         3        8.752112e-01
        75         3       -7.600762e-01
        76         3        1.910232e+00
        77         3        3.995795e-01
        78         3        6.989456e-01
        79         3       -1.745938e+00
        80         3       -6.096347e-02
        81         3        2.301319e+00
        82         3       -1.375474e+00
        83         3       -7.374816e-01
        84         3       -2.537284e-01
        85         3        1.395672e+00
        86         3       -4.047109e-01
        87         3       -8.694730e-01
        88         3        6.533489e-01
        89         3       -1.253069e-01
        90         3        7.534264e-01
        91         3       -3.873225e-01
        92         3        9.181138e-01
        93         3        3.177859e-01
        94         3        1.394645e+00
        95         3        8.633771e-01
        96         3        9.889069e-01
        97         3        1.731120e+00
        98         3       -8.434439e-02
        99         3        9.388554e-01
       100         3        4.191977e-01
         1         4       -7.417538e-01
         2         4        1.930895e+00
         3         4        2.445874e+00
         4         4        2.133220e+00
         5         4       -4.732062e-01
         6         4        1.088343e+00
         7         4       -5.277295e-01
         8         4        7.165605e-01
         9         4        2.380424e+00
        10         4        9.295140e-01
        11         4       -3.055724e-02
        12         4        6.908532e-01
        13         4       -7.191802e-01
        14         4        4.719230e-01
        15         4        5.557194e-01
        16         4        1.218463e+00
        17         4        1.445194e+00
        18         4       -1.778887e+00
        19         4        3.927284e-01
        20         4        1.389328e+00
        21         4       -3.212367e-01
        22         4        9.091566e-01
        23         4        1.810284e+00
        24         4        2.629053e+00
        25         4        1.177304e+00
        26         4       -3.810784e-01
        27         4        6.792292e-01
        28         4       -1.010187e+00
        29         4        7.801318e-01
        30         4        3.698039e-03
        31         4       -1.757516e+00
        32         4        6.454445e-03
        33         4       -8.404985e-01
        34         4        1.973738e+00
        35         4       -3.091144e-01
        36         4        1.098698e+00
        37         4       -9.146450e-01
        38         4        8.714767e-01
        39         4        4.861806e-01
        40         4        7.613929e-02
        41         4        4.252605e-02
        42         4       -2.141291e+00
        43         4       -2.109641e+00
        44         4       -1.181692e+00
        45         4       -2.411188e-01
        46         4        7.980729e-01
        47         4        1.091992e+00
        48         4        8.158059e-01
        49         4        3.878467e-01
        50         4       -5.204984e-01
        51         4        2.394846e-01
        52         4       -1.769528e+00
        53         4       -9.929044e-01
        54         4        2.367563e-02
        55         4        2.844881e-01
        56         4        4.933788e-01
        57         4       -1.890934e-01
        58         4       -7.500048e-01
        59         4        1.198256e+00
        60         4        6.204500e-01
        61         4        5.795713e-01
        62         4        1.009692e-02
        63         4       -9.880505e-01
        64         4        2.678918e-01
        65         4       -1.329353e+00
        66         4       -5.673945e-01
        67         4       -1.604167e+00
        68         4        5.836908e-01
        69         4       -1.177017e+00
        70         4       -4.505282e-01
        71         4       -2.819888e-02
        72         4       -7.454736e-01
        73         4       -9.321025e-01
        74         4       -3.169315e-01
        75         4        1.614391e+00
        76         4       -1.288193e+00
        77         4       -2.224865e+00
        78         4        2.505292e-01
        79         4        1.029715e+00
        80         4        5.605668e-01
        81         4       -2.585008e+00
        82         4        1.532758e-02
        83         4       -1.049744e-01
        84         4       -1.688250e+00
        85         4        8.117572e-01
        86         4       -1.385193e+00
        87         4       -9.171661e-01
        88         4       -9.832974e-01
        89         4       -5.564671e-01
        90         4        3.138850e-01
        91         4       -7.010232e-01
        92         4        4.171040e-01
        93         4        1.157485e+00
        94         4        1.001058e+00
        95         4        1.023598e+00
        96         4       -9.646267e-01
        97         4       -1.922104e-02
        98         4        1.284086e-01
        99         4       -3.403172e-01
       100         4        1.250216e-02
         1         5        4.734669e-01
         2         5       -1.732003e+00
         3         5       -2.162788e-01
         4         5        9.703958e-01
         5         5        3.442000e-01
         6         5       -1.130853e+00
         7         5       -1.268795e+00
         8         5        1.254291e+00
         9         5       -5.143714e-01
        10         5       -1.613940e+00
        11         5       -6.416926e-01
        12         5       -5.128434e-01
        13         5        8.607708e-01
        14         5       -1.767709e+00
        15         5       -1.227663e+00
        16         5        2.714168e-01
        17         5       -1.099235e+00
        18         5        2.509931e+00
        19         5       -1.017622e+00
        20         5        1.598548e+00
        21         5       -4.388919e-01
        22         5        3.206780e-01
        23         5       -6.507465e-01
        24         5       -2.337800e+00
        25         5        5.746124e-01
        26         5       -1.966369e+00
        27         5        1.261120e+00
        28         5       -9.316188e-02
        29         5        6.546646e-01
        30         5       -1.392079e-01
        31         5       -2.858275e-01
        32         5       -4.068868e-01
        33         5       -1.991398e-01
        34         5        1.075882e+00
        35         5        5.271406e-02
        36         5        2.486155e-01
        37         5        1.147226e+00
        38         5        4.488514e-01
        39         5       -1.349244e+00
        40         5        2.166818e+00
        41         5        8.783284e-01
        42         5        3.893176e-01
        43         5       -3.450262e-01
        44         5       -1.295199e-01
        45         5       -8.575167e-01
        46         5        8.137158e-01
        47         5       -2.445064e-02
        48         5        1.942820e-02
        49         5       -5.195878e-01
        50         5        7.171379e-01
        51         5       -1.367013e+00
        52         5        3.322662e-01
        53         5        1.867566e+00
        54         5        1.516493e+00
        55         5        3.105667e-01
        56         5        5.713862e-01
        57         5       -7.713797e-01
        58         5        2.838770e-03
        59         5       -1.565448e+00
        60         5        2.083548e+00
        61         5        1.196883e-01
        62         5       -7.603430e-01
        63         5        1.202975e+00
        64         5        8.176583e-01
        65         5       -2.985564e-01
        66         5       -9.287345e-01
        67         5       -4.455403e-01
        68         5       -4.726251e-02
        69         5        3.088484e-01
        70         5        1.191602e+00
        71         5       -8.316298e-01
        72         5       -2.108012e-01
        73         5        1.826148e-01
        74         5       -1.383736e+00
        75         5        2.685139e-02
        76         5       -1.344390e+00
        77         5        1.406158e+00
        78         5       -5.792522e-01
        79         5        1.950681e+00
        80         5        1.193329e+00
        81         5        1.087866e+00
        82         5       -2.490290e-01
        83         5        2.000751e+00
        84         5        1.812062e-01
        85         5       -6.370765e-01
        86         5        1.425353e+00
        87         5        2.052670e-01
        88         5       -1.416683e+00
        89         5       -7.574956e-01
        90         5        1.375419e+00
        91         5       -9.372666e-01
        92         5       -5.123218e-01
        93         5       -5.689590e-01
        94         5       -5.996479e-01
        95         5        1.081458e+00
        96         5        2.991988e-01
        97         5       -1.768268e+00
        98         5       -8.462807e-01
        99         5       -2.696739e-01
       100         5        7.635460e-01
;

param theta:=
    1        2.282878e+00
    2        1.044102e+00
    3       -1.262329e-01
    4        1.845516e-01
    5       -1.301338e+00
;
param X_true:=
    1        2.185230e-01
    2        2.933375e+00
    3        2.195060e+00
    4        4.069708e+00
    5       -1.050828e+00
    6        2.313091e+00
    7        6.275003e+00
    8        3.049837e+00
    9        3.514663e+00
   10        2.346750e+00
   11        5.502734e+00
   12       -3.962846e-01
   13        9.884971e-01
   14       -4.342461e+00
   15        1.080186e-01
   16        2.932186e-01
   17        1.326889e+00
   18       -1.094968e+00
   19        1.385115e+00
   20        1.000587e+00
   21       -9.665825e-01
   22        1.657448e+00
   23        5.056875e+00
   24        6.830037e+00
   25       -6.667914e+00
   26        3.269184e+00
   27        7.323534e-01
   28       -1.634673e+00
   29       -3.380724e+00
   30       -1.569386e+00
   31       -1.290055e-01
   32        2.034777e+00
   33        2.368482e+00
   34        3.100165e+00
   35       -1.455443e+00
   36        1.048617e-01
   37        2.851539e+00
   38        3.197977e+00
   39        3.450497e+00
   40       -4.071537e+00
   41       -7.725499e-01
   42       -2.082177e+00
   43        3.776849e-01
   44        2.330423e+00
   45        3.116678e+00
   46       -5.113236e+00
   47        3.163355e+00
   48       -2.764491e-01
   49       -4.622149e-01
   50       -3.167024e+00
   51        7.231236e+00
   52       -2.542528e+00
   53       -4.083828e+00
   54       -3.081631e+00
   55        2.807405e+00
   56       -2.573685e+00
   57        1.397315e+00
   58       -1.129146e-02
   59        8.891835e+00
   60       -6.361205e+00
   61        1.829997e+00
   62        7.293733e-01
   63       -1.890740e+00
   64       -5.656703e+00
   65       -6.880281e-01
   66        2.372884e+00
   67       -1.764648e+00
   68       -2.438502e+00
   69        1.690587e+00
   70       -5.851789e+00
   71        3.353039e+00
   72       -1.073500e+00
   73        1.635976e+00
   74        3.262219e-01
   75       -2.857053e-01
   76       -1.656531e-02
   77       -6.202370e+00
   78       -1.135933e+00
   79        4.329041e-01
   80       -2.093119e+00
   81       -3.882609e+00
   82       -7.066659e+00
   83       -3.613080e+00
   84       -3.966558e+00
   85        2.543080e+00
   86       -1.268792e+00
   87       -4.031726e+00
   88        2.035009e+00
   89        7.703647e+00
   90       -2.039269e+00
   91       -1.766936e+00
   92        3.641842e+00
   93        2.351423e+00
   94       -2.283868e+00
   95       -3.797085e+00
   96        1.094976e+00
   97        2.394986e+00
   98       -2.372898e+00
   99        5.074354e+00
  100       -1.227298e-01
;
param X:=
    1       -1.471825e+00
    2       -5.794333e-01
    3        4.208558e-01
    4        7.354196e-02
    5        1.338820e+00
    6        1.097361e+00
    7        6.275003e+00
    8        7.189445e-02
    9        8.752870e-01
   10       -1.945260e+00
   11        7.220525e-01
   12       -3.962846e-01
   13        1.670558e-01
   14       -9.169030e-01
   15       -1.194316e+00
   16       -3.653326e-01
   17        1.326889e+00
   18       -8.959555e-01
   19        1.925129e-01
   20        1.000587e+00
   21       -6.292056e-01
   22        1.739561e+00
   23       -6.183955e-02
   24        4.221800e-02
   25        1.096389e+00
   26       -2.793990e-02
   27        8.727136e-01
   28       -1.634673e+00
   29       -2.854461e-01
   30       -2.918000e-02
   31       -2.724076e+00
   32        3.324870e-01
   33        1.147187e+00
   34       -1.506427e+00
   35       -1.441570e+00
   36       -5.837566e-01
   37        6.171696e-01
   38       -4.955370e-01
   39        6.275656e-01
   40       -4.071537e+00
   41        1.053575e-01
   42       -2.082177e+00
   43        3.776849e-01
   44        2.579605e+00
   45        1.406519e+00
   46       -1.711174e+00
   47        3.163355e+00
   48        6.853083e-02
   49        8.823449e-01
   50       -3.167024e+00
   51        8.735475e-02
   52        4.971044e-01
   53        1.555395e+00
   54       -5.321497e-01
   55        2.807405e+00
   56       -2.573685e+00
   57        8.406367e-01
   58       -1.954457e-01
   59       -2.241992e+00
   60       -6.361205e+00
   61       -1.552898e+00
   62       -6.886252e-01
   63       -6.001280e-02
   64       -5.656703e+00
   65        2.089776e+00
   66       -2.971428e-01
   67       -4.473494e-01
   68        7.609723e-01
   69        1.690587e+00
   70       -2.630875e-01
   71        7.630324e-01
   72       -1.073500e+00
   73       -8.324023e-02
   74        2.480033e-01
   75       -1.366712e+00
   76       -1.656531e-02
   77       -8.708570e-01
   78       -4.938246e-01
   79        5.932407e-01
   80       -2.093119e+00
   81        5.353998e-01
   82       -7.066659e+00
   83        6.542258e-01
   84        4.045270e-01
   85        1.144628e+00
   86       -1.989619e+00
   87        2.675073e-01
   88        1.937320e+00
   89        7.703647e+00
   90       -1.860562e+00
   91       -1.766936e+00
   92       -7.776872e-01
   93        9.263721e-01
   94        2.569787e-01
   95       -1.771245e+00
   96        7.915286e-01
   97        6.585306e-01
   98        2.154159e+00
   99        1.263539e+00
  100       -1.227298e-01
;
param outliervec:=
    1    1
    2    1
    3    1
    4    1
    5    1
    6    1
    7    0
    8    1
    9    1
   10    1
   11    1
   12    0
   13    1
   14    1
   15    1
   16    1
   17    0
   18    1
   19    1
   20    0
   21    1
   22    1
   23    1
   24    1
   25    1
   26    1
   27    1
   28    0
   29    1
   30    1
   31    1
   32    1
   33    1
   34    1
   35    1
   36    1
   37    1
   38    1
   39    1
   40    0
   41    1
   42    0
   43    0
   44    1
   45    1
   46    1
   47    0
   48    1
   49    1
   50    0
   51    1
   52    1
   53    1
   54    1
   55    0
   56    0
   57    1
   58    1
   59    1
   60    0
   61    1
   62    1
   63    1
   64    0
   65    1
   66    1
   67    1
   68    1
   69    0
   70    1
   71    1
   72    0
   73    1
   74    1
   75    1
   76    0
   77    1
   78    1
   79    1
   80    0
   81    1
   82    0
   83    1
   84    1
   85    1
   86    1
   87    1
   88    1
   89    0
   90    1
   91    0
   92    1
   93    1
   94    1
   95    1
   96    1
   97    1
   98    1
   99    1
  100    0
;